% seed = 0

mint = 37;
% maxt = 199;

nActs = 92;
dur = [0,1,1,1,3,3,1,1,2,2,2,4,4,3,4,2,3,2,1,3,3,3,1,3,1,2,2,1,1,2,2,2,2,4,3,2,2,2,4,3,1,2,2,2,1,3,2,3,2,2,1,1,4,1,3,3,2,1,2,1,1,2,1,2,2,2,3,2,3,3,2,4,2,2,3,2,2,2,2,1,3,1,1,7,2,3,2,2,2,2,4,0];

nSkills = 9;
sreq = [| 0,0,0,0,0,0,0,0,0,
	| 0,0,0,0,0,0,0,2,0,
	| 0,0,0,1,0,1,0,0,0,
	| 0,0,0,1,0,0,0,0,0,
	| 0,1,0,1,1,0,0,0,0,
	| 0,0,1,0,0,0,0,1,0,
	| 0,0,0,0,0,0,1,1,0,
	| 0,0,0,1,0,0,0,1,0,
	| 0,0,0,0,0,0,0,1,0,
	| 0,1,1,0,0,1,0,0,0,
	| 0,0,0,1,0,0,0,0,1,
	| 0,1,0,0,1,0,0,1,0,
	| 0,1,0,0,0,0,0,1,0,
	| 1,0,1,0,0,1,0,0,0,
	| 0,0,1,0,0,0,0,1,0,
	| 0,0,0,1,0,1,1,0,0,
	| 0,0,0,0,0,0,0,1,0,
	| 0,0,0,0,0,1,0,1,0,
	| 1,0,0,1,0,0,0,1,0,
	| 1,1,0,0,0,0,0,1,0,
	| 0,0,1,0,0,0,1,1,0,
	| 0,0,2,0,0,1,0,0,0,
	| 0,0,0,0,0,1,0,0,0,
	| 0,0,0,0,0,1,0,1,0,
	| 0,0,1,1,0,1,0,0,0,
	| 0,0,0,0,0,1,0,1,0,
	| 0,0,1,0,0,0,0,0,0,
	| 0,0,1,0,0,0,0,2,0,
	| 0,0,0,1,0,0,0,2,0,
	| 0,1,0,0,0,0,0,0,0,
	| 0,0,0,0,1,0,0,0,0,
	| 0,0,0,0,1,0,0,0,0,
	| 0,1,1,0,0,1,0,0,0,
	| 0,1,0,0,1,0,0,0,0,
	| 0,0,1,0,0,0,0,2,0,
	| 0,0,1,0,0,0,0,1,0,
	| 0,0,0,0,0,2,0,1,0,
	| 0,0,0,0,0,0,0,1,0,
	| 0,0,0,0,0,0,0,1,0,
	| 0,0,1,0,0,1,0,0,0,
	| 0,0,0,0,0,1,0,1,0,
	| 0,0,0,0,0,1,0,1,0,
	| 0,0,0,0,0,0,0,1,0,
	| 0,1,0,0,0,1,0,0,0,
	| 0,0,0,0,0,1,0,0,0,
	| 0,1,0,0,0,1,0,0,0,
	| 0,0,0,0,1,1,0,1,0,
	| 0,0,0,1,0,1,0,0,0,
	| 0,0,1,0,0,0,0,0,0,
	| 0,0,0,0,0,2,0,1,0,
	| 0,0,0,0,1,1,0,0,0,
	| 0,1,1,0,0,0,0,1,0,
	| 0,0,1,1,1,0,0,0,0,
	| 0,0,2,0,0,1,0,0,0,
	| 0,0,1,0,0,0,0,1,0,
	| 0,0,0,0,0,1,0,0,0,
	| 0,0,0,0,0,1,1,1,0,
	| 0,0,1,0,1,0,0,1,0,
	| 0,0,0,0,1,0,0,1,0,
	| 0,0,1,0,0,0,1,0,0,
	| 0,0,1,0,0,1,0,1,0,
	| 0,0,0,1,0,0,0,2,0,
	| 0,0,0,0,0,2,1,0,0,
	| 0,0,0,1,0,0,0,0,0,
	| 0,0,1,0,0,0,0,0,0,
	| 0,0,0,0,0,1,0,2,0,
	| 0,0,0,1,1,1,0,0,0,
	| 0,0,1,0,0,0,0,0,0,
	| 0,1,0,1,1,0,0,0,0,
	| 0,0,0,0,0,1,0,1,0,
	| 0,0,1,0,0,0,0,1,0,
	| 0,0,1,0,0,0,0,0,0,
	| 0,1,0,0,0,0,0,0,0,
	| 0,0,1,0,0,0,0,1,0,
	| 0,0,1,1,0,0,0,1,0,
	| 0,0,0,0,1,0,0,0,0,
	| 0,0,0,0,0,1,0,0,0,
	| 0,0,0,0,0,0,0,1,0,
	| 0,0,0,1,0,0,0,1,0,
	| 1,0,2,0,0,0,0,0,0,
	| 1,0,0,1,1,0,0,0,0,
	| 0,0,1,0,0,0,0,0,0,
	| 0,0,0,0,1,0,0,0,0,
	| 1,0,0,0,0,0,0,2,0,
	| 0,1,0,0,0,0,0,1,0,
	| 0,0,0,1,0,0,0,0,0,
	| 0,1,0,0,0,1,0,0,0,
	| 0,0,1,0,0,0,1,1,0,
	| 0,0,0,0,1,0,0,0,0,
	| 0,1,0,1,0,0,0,1,0,
	| 0,0,0,0,0,2,1,0,0,
	| 0,0,0,0,0,0,0,0,0, |];

% SumOfsreq = 189;

nResources = 10;
mastery = [| false,false,true,false,false,false,false,true,true,
	| false,true,true,false,false,false,true,true,true,
	| false,true,true,false,false,false,false,false,false,
	| false,false,false,true,true,true,false,false,true,
	| false,false,false,false,false,true,false,true,true,
	| false,false,false,true,true,true,false,false,false,
	| false,false,false,true,true,true,false,false,true,
	| false,false,false,false,false,false,false,true,true,
	| true,true,true,false,false,false,true,true,true,
	| false,false,false,true,true,true,false,false,false, |];

nPrecs = 194;
pred = [1,1,1,2,2,2,3,3,3,4,4,4,5,5,5,6,6,6,7,7,8,8,8,9,9,9,10,10,10,11,11,11,12,12,13,13,13,14,14,15,16,16,16,17,17,17,18,18,18,19,19,19,20,20,20,21,21,21,22,22,22,23,23,23,24,24,24,25,26,26,26,27,27,27,28,28,28,29,29,29,30,31,32,32,32,33,33,33,34,34,35,35,35,36,36,36,37,37,38,38,38,39,39,39,40,40,41,41,41,42,42,43,43,43,44,44,44,45,45,45,46,46,47,47,48,48,49,49,50,51,51,52,52,52,53,53,53,54,54,54,55,56,56,57,57,58,58,59,60,60,61,61,62,62,62,63,64,64,64,65,65,65,66,67,68,69,69,70,70,70,71,71,72,73,74,75,76,77,78,78,79,80,81,82,82,83,84,85,86,87,88,89,90,91];
succ = [2,3,4,17,35,7,9,6,32,34,5,45,13,47,23,12,14,8,10,8,41,13,24,11,19,16,91,29,30,33,18,78,66,16,26,53,15,25,21,82,29,46,39,65,61,22,51,20,55,41,44,28,34,37,64,33,27,22,26,38,71,69,43,61,81,30,47,67,48,30,40,35,36,55,89,51,31,50,59,60,57,47,86,79,48,51,75,46,44,40,58,60,39,52,38,70,76,54,57,68,53,67,70,40,42,80,50,76,56,50,54,59,46,56,67,52,72,70,78,64,54,71,49,83,49,85,74,55,68,74,59,57,60,56,69,78,72,74,82,72,75,65,84,66,77,61,62,63,68,63,63,88,65,79,64,87,85,66,69,73,81,77,84,86,87,73,76,73,79,71,77,80,81,75,88,88,86,85,82,83,80,84,83,90,91,87,90,89,89,90,91,92,92,92];

nUnrels = 2361;
unpred = [2,2,2,2,2,2,2,2,2,2,2,2,2,2,2,2,2,2,2,2,2,2,2,2,2,2,2,2,2,3,3,3,3,3,3,3,3,4,4,4,4,4,4,4,4,4,4,4,4,4,4,4,4,4,4,4,4,4,4,4,4,4,4,4,4,4,4,4,4,5,5,5,5,5,5,5,5,5,5,5,5,5,5,5,5,5,5,5,5,5,5,5,5,5,5,5,5,5,5,5,5,5,5,5,5,5,5,5,5,5,6,6,6,6,6,6,6,6,6,6,6,6,6,6,6,6,6,7,7,7,7,7,7,7,7,7,7,7,7,7,7,7,7,7,7,7,7,7,7,7,7,7,7,7,7,7,7,7,7,7,7,7,7,7,7,8,8,8,8,8,8,8,8,8,8,8,8,8,8,8,8,8,8,8,8,8,8,8,8,8,8,8,8,8,8,8,8,8,8,8,8,8,8,8,8,8,8,8,9,9,9,9,9,9,9,9,9,9,9,9,9,9,9,9,9,9,9,9,9,9,9,9,9,10,10,10,10,10,10,10,10,10,10,10,10,10,10,10,10,10,10,10,10,10,10,10,10,10,10,10,10,10,10,10,10,10,10,10,10,10,10,10,10,10,10,10,10,10,10,10,10,10,10,10,10,10,10,10,10,10,10,10,10,10,10,10,10,10,11,11,11,11,11,11,11,11,11,11,11,11,11,11,11,11,11,11,11,11,11,11,11,11,11,11,11,11,11,11,11,11,11,11,11,12,12,12,12,12,12,12,12,12,12,12,12,12,12,12,12,12,12,12,12,12,12,12,12,12,12,12,12,12,12,12,12,12,12,12,12,12,12,12,12,12,12,12,12,12,13,13,13,13,13,13,13,13,13,13,13,13,13,13,13,13,13,13,13,13,13,13,13,13,13,13,13,13,13,13,13,13,13,13,13,13,13,13,13,13,13,13,13,13,14,14,14,14,14,14,14,14,14,14,14,14,14,14,14,14,14,14,14,15,15,15,15,15,15,15,15,15,15,15,15,15,15,15,15,15,15,15,15,15,15,15,15,15,15,15,15,15,15,15,15,15,15,15,15,15,15,15,15,15,15,15,15,15,15,15,15,15,15,15,15,15,15,15,15,15,15,15,15,15,15,15,15,15,15,15,15,15,15,15,15,15,16,16,16,16,16,16,16,16,16,16,16,16,16,16,16,16,16,16,16,16,16,16,16,16,16,16,16,16,16,16,16,16,16,16,16,16,16,16,16,16,16,16,16,17,17,17,17,17,17,17,17,17,17,17,17,17,17,17,17,17,17,17,17,17,17,17,17,17,17,17,17,17,17,17,17,17,17,17,18,18,18,18,18,18,18,18,18,18,18,18,18,18,18,18,18,18,18,18,18,18,18,18,18,18,18,18,18,18,18,18,18,19,19,19,19,19,19,19,19,19,19,19,19,19,19,19,19,19,19,19,19,19,19,19,19,19,19,19,19,19,19,19,19,19,19,19,19,19,20,20,20,20,20,20,20,20,20,20,20,20,20,20,20,20,20,20,20,20,20,20,20,20,20,20,20,20,20,20,20,20,20,20,20,21,21,21,21,21,21,21,21,21,21,21,21,21,21,22,22,22,22,22,22,22,22,22,22,22,22,22,22,22,22,22,22,22,22,22,22,22,22,22,22,22,22,22,22,22,22,22,22,23,23,23,23,23,23,23,23,23,23,23,23,23,23,23,23,23,23,23,23,23,23,23,23,23,23,23,23,23,23,23,23,23,23,23,23,23,23,23,23,24,24,24,24,24,24,24,24,24,24,24,24,24,24,24,24,24,24,24,24,24,24,24,24,24,24,24,24,24,24,24,24,24,24,24,24,24,24,24,24,24,24,24,24,24,24,24,24,24,25,25,25,25,25,25,25,25,25,25,25,25,25,25,25,25,25,25,25,25,25,25,25,25,25,25,25,25,25,25,25,25,25,25,25,25,25,25,25,25,25,25,25,25,25,25,25,25,25,25,25,25,25,25,25,25,25,25,25,25,25,25,25,26,26,26,26,26,26,26,26,26,26,26,26,26,26,26,26,26,26,26,26,26,26,26,26,26,26,26,26,26,26,26,26,26,26,26,26,26,26,26,27,27,27,27,27,27,27,27,27,27,27,27,27,27,27,27,27,27,28,28,28,28,28,28,28,28,28,28,28,28,28,28,28,28,28,28,28,28,28,28,28,28,28,28,28,28,28,28,28,28,28,28,28,28,28,28,28,28,28,28,28,28,28,28,28,28,29,29,29,29,29,29,29,29,29,29,29,29,29,29,29,29,29,29,29,29,29,29,29,29,29,29,29,29,29,29,29,29,29,29,29,29,29,29,29,29,29,29,29,29,29,29,29,29,29,29,29,29,29,29,29,30,30,30,30,30,30,30,30,30,30,30,30,30,30,30,30,30,30,30,30,30,30,30,30,30,30,30,30,30,30,30,30,30,30,30,30,30,30,30,30,30,30,30,30,30,30,30,30,30,30,30,30,30,30,31,31,31,31,31,31,31,31,31,31,31,31,31,31,31,31,31,31,31,31,31,31,31,31,31,31,31,31,31,31,31,31,31,31,31,31,31,31,31,31,31,31,31,31,31,31,31,31,31,31,32,32,32,32,32,32,32,32,32,32,32,32,32,32,32,32,32,32,32,32,32,32,32,32,32,32,32,32,32,32,32,32,32,32,32,32,32,32,32,32,32,32,32,32,32,33,33,33,33,33,33,33,33,33,33,33,33,33,33,33,33,33,33,33,33,33,33,33,33,33,33,33,33,33,33,33,33,33,33,33,33,33,34,34,34,34,34,34,34,34,34,34,34,34,34,34,34,34,34,34,34,34,34,34,34,34,34,34,35,35,35,35,35,35,35,35,35,35,35,35,35,35,35,35,35,35,35,36,36,36,36,36,36,36,36,36,36,36,36,36,36,36,36,36,36,36,36,36,36,36,37,37,37,37,37,37,37,37,37,37,37,37,37,37,37,37,37,37,37,37,37,37,37,37,37,37,37,37,37,37,37,37,37,37,37,37,37,37,37,37,37,38,38,38,38,38,38,38,38,38,38,38,38,38,38,38,38,38,38,38,38,38,38,38,38,38,38,38,38,38,38,38,39,39,39,39,39,39,39,39,39,39,39,39,39,39,39,39,39,39,39,39,39,39,39,39,39,39,40,40,40,40,40,40,40,40,40,40,40,40,40,40,40,40,40,40,40,40,40,40,40,40,40,40,40,40,40,40,40,40,40,40,40,40,41,41,41,41,41,41,41,41,41,41,41,41,41,41,41,41,41,41,41,41,41,41,41,41,41,41,41,41,41,41,41,41,42,42,42,42,42,42,42,42,42,42,42,42,42,42,42,42,42,42,42,42,42,42,42,42,42,42,42,42,42,42,42,42,42,42,42,42,42,43,43,43,43,43,43,43,43,43,43,43,43,43,43,43,43,43,43,43,43,43,43,43,43,43,44,44,44,44,44,44,44,44,44,44,44,44,44,44,44,44,44,44,44,44,44,44,44,44,45,45,45,45,45,45,45,45,45,45,45,45,45,45,45,45,45,45,45,45,45,45,45,45,46,46,46,46,46,46,46,46,46,46,46,46,46,46,46,46,46,46,46,46,46,46,46,46,46,46,46,46,46,47,47,47,47,47,47,47,47,47,47,47,47,47,47,47,47,47,47,47,47,47,47,47,47,47,47,47,47,47,47,47,47,47,47,47,48,48,48,48,48,48,48,48,48,48,48,48,48,48,48,48,48,48,48,48,48,48,48,48,48,48,48,48,48,48,48,48,48,48,48,49,49,49,49,49,49,49,49,49,49,49,49,49,49,49,49,49,49,49,49,49,49,49,49,49,49,49,49,49,49,49,49,49,49,49,49,49,50,50,50,50,50,50,50,50,50,50,50,50,50,50,50,50,50,50,50,50,50,50,50,50,50,50,50,50,50,50,50,50,50,50,50,50,50,50,51,51,51,51,51,51,51,51,51,51,51,51,51,51,51,51,51,51,51,51,51,51,51,51,51,51,51,51,51,51,51,51,51,52,52,52,52,52,52,52,52,52,52,52,52,52,52,52,52,52,52,52,52,53,53,53,53,53,53,53,53,53,53,53,53,53,53,53,53,53,53,53,53,53,53,53,54,54,54,54,54,54,54,54,54,54,54,54,54,54,54,54,54,54,54,54,54,54,54,54,54,54,54,54,55,55,55,55,55,55,55,55,55,55,55,55,55,55,55,55,55,55,55,55,55,55,55,55,55,55,55,55,55,55,55,55,55,56,56,56,56,56,56,56,56,56,56,56,56,56,56,56,56,56,56,56,56,56,56,57,57,57,57,57,57,57,57,57,57,57,57,57,57,57,57,57,57,57,57,57,57,57,57,57,57,57,57,58,58,58,58,58,58,58,58,58,58,59,59,59,59,59,59,59,59,59,59,59,59,59,59,59,59,59,59,59,59,59,59,59,59,59,59,59,59,59,60,60,60,60,60,60,60,60,60,60,60,60,60,60,60,60,60,60,60,60,60,60,60,60,60,60,60,61,61,61,61,61,61,61,61,61,61,61,61,61,61,61,61,61,61,61,61,61,61,61,61,61,62,62,62,62,62,62,62,62,62,63,63,63,63,63,63,63,63,63,63,63,63,63,63,63,63,63,63,63,63,63,63,63,63,63,63,64,64,64,64,64,64,64,64,64,64,64,64,64,64,64,65,65,65,65,65,65,65,65,65,65,65,65,65,65,65,66,66,66,66,66,66,66,66,66,66,66,66,66,66,66,66,66,66,66,66,66,66,66,67,67,67,67,67,67,67,67,67,67,67,67,67,67,67,67,67,67,67,67,67,67,68,68,68,68,68,68,68,68,68,68,68,68,68,68,68,68,68,68,68,68,68,69,69,69,69,69,69,69,69,69,69,69,69,69,69,69,70,70,70,70,70,70,70,70,70,71,71,71,71,71,71,71,71,71,71,71,71,71,71,72,72,72,72,72,72,72,72,72,72,72,72,72,72,72,73,73,73,73,73,73,73,73,73,73,73,73,73,73,73,74,74,74,74,74,74,74,74,74,74,74,74,74,74,74,75,75,75,75,75,75,75,75,75,75,75,75,75,75,76,76,76,76,76,76,76,76,76,76,76,76,76,77,77,77,77,77,77,77,77,77,77,77,77,78,78,78,78,78,78,78,78,79,79,79,79,79,79,79,79,79,80,80,80,80,80,80,80,80,80,81,81,81,81,81,81,81,82,82,82,82,82,82,82,83,83,83,83,83,83,84,84,84,84,84,84,85,85,85,85,85,86,86,86,86,87,87,87,88,88,89,89,90];
unsucc = [3,4,5,6,9,11,12,14,16,18,19,20,21,23,25,27,28,31,32,33,34,36,37,43,44,45,46,51,52,4,5,7,10,17,23,43,45,6,7,8,9,10,11,12,14,16,17,18,19,20,21,22,24,25,27,28,29,31,32,33,35,36,37,38,39,41,51,58,62,6,7,8,9,10,11,12,14,16,17,18,19,20,21,22,24,25,27,28,29,31,32,33,34,35,36,37,38,39,41,44,45,51,52,58,60,62,64,67,70,79,7,9,10,11,17,18,19,20,23,28,31,32,34,37,43,44,45,9,11,12,14,16,17,18,19,20,21,22,23,25,27,28,31,32,33,34,35,36,37,38,39,43,44,45,46,51,52,58,61,62,64,67,70,71,79,9,10,11,12,14,16,17,18,19,20,21,22,23,25,27,28,29,31,32,33,34,35,36,37,38,39,43,44,45,46,51,52,58,59,60,61,62,63,64,67,70,71,79,10,12,13,14,15,17,21,22,23,24,25,26,27,30,32,35,36,38,43,45,48,53,58,61,62,11,12,13,14,15,16,17,18,19,20,21,22,23,24,25,26,27,28,31,32,33,34,35,36,37,38,39,40,41,42,43,44,45,46,47,48,49,51,52,53,54,55,56,58,61,62,64,65,67,69,70,71,72,73,74,75,76,78,79,80,81,82,83,86,88,12,13,14,15,16,17,19,21,22,23,24,25,26,27,28,29,30,31,32,35,36,38,39,41,43,45,47,48,49,53,58,61,62,70,79,13,14,15,17,18,19,20,21,22,23,24,25,26,27,28,30,31,32,33,34,35,36,37,38,41,43,44,45,47,48,49,51,52,53,55,56,57,58,61,62,64,65,69,76,78,14,16,17,18,19,20,21,22,23,24,25,27,28,29,31,32,33,34,35,36,37,38,39,41,43,44,45,46,47,51,52,56,58,59,60,61,62,63,64,65,67,70,71,79,15,16,17,18,19,20,23,24,28,29,31,32,34,37,41,43,44,45,47,16,17,18,19,20,21,22,23,24,25,26,27,28,29,30,31,32,33,34,35,36,37,38,39,40,41,42,43,44,45,46,47,48,49,50,51,52,53,54,55,56,57,58,59,60,61,62,63,64,65,66,67,68,69,70,71,72,73,74,75,76,77,78,79,80,81,83,84,85,86,87,88,89,17,18,19,20,21,22,23,24,25,26,27,28,30,31,32,33,34,35,36,37,38,41,43,44,45,47,48,49,51,52,53,55,56,57,58,61,62,64,65,66,69,76,78,18,19,20,21,23,24,25,27,28,29,31,32,33,34,35,36,37,39,41,43,44,45,46,47,51,52,56,58,59,60,62,64,67,70,79,19,21,22,23,24,25,26,27,28,29,30,31,32,33,35,36,38,39,41,43,45,46,47,48,49,53,58,61,62,70,71,78,79,20,21,22,23,24,25,26,27,29,30,32,33,34,35,36,37,38,39,40,42,43,45,46,48,53,54,58,61,62,64,69,70,71,78,79,80,82,21,22,23,24,25,26,27,28,29,30,31,32,33,35,36,38,39,41,43,45,46,47,48,49,51,53,55,58,59,61,62,70,71,78,79,23,24,25,28,29,31,32,34,37,41,43,44,45,47,23,24,25,27,28,29,31,32,33,34,35,36,37,39,41,43,44,45,46,47,51,52,56,58,59,60,61,62,63,64,65,67,70,79,24,25,26,27,28,29,30,31,32,33,34,35,36,37,38,39,40,41,42,44,45,47,48,49,50,51,52,53,55,57,58,60,62,64,66,67,68,70,78,79,25,26,27,28,29,31,32,33,34,35,36,37,38,39,40,41,42,43,44,45,46,48,50,51,52,53,54,56,58,59,60,61,62,63,64,65,67,68,69,70,71,72,73,76,78,79,80,82,86,26,27,28,29,30,31,32,33,34,35,36,37,38,39,40,41,42,43,44,45,46,47,48,49,50,51,52,53,54,55,56,57,58,59,60,61,62,63,64,65,66,68,69,70,71,72,73,74,75,76,77,78,79,80,81,82,83,84,85,87,88,90,91,27,28,29,31,32,33,34,35,36,37,38,39,41,43,44,45,46,47,51,52,53,56,58,59,60,61,62,63,64,65,67,69,70,71,73,76,78,79,86,28,29,30,31,32,33,34,37,41,43,44,45,46,47,48,49,51,59,29,30,32,33,34,35,36,37,38,39,40,41,42,43,44,45,46,48,50,52,53,54,56,57,58,60,61,62,64,65,66,67,68,69,70,71,72,73,76,77,78,79,80,81,82,84,85,86,30,31,32,33,34,35,36,37,38,39,40,41,42,43,44,45,46,47,48,49,51,52,53,54,55,56,57,58,61,62,64,65,66,67,69,70,71,72,73,74,75,76,77,78,79,80,81,82,83,84,85,86,88,89,91,31,32,33,34,35,36,37,38,39,40,41,42,43,44,45,46,47,48,49,50,51,52,53,54,55,56,58,59,60,61,62,63,64,65,67,68,69,70,71,72,73,74,75,76,78,79,80,81,82,83,86,87,88,91,32,33,34,35,36,37,38,39,40,41,42,43,44,45,46,48,50,51,52,53,54,56,57,58,59,60,61,62,63,64,65,66,67,68,69,70,71,72,73,76,77,78,79,80,81,82,84,85,86,89,33,34,35,36,37,38,39,40,41,42,43,44,45,46,47,50,51,52,53,54,56,57,58,59,60,61,62,63,64,65,66,67,68,69,70,71,72,73,76,77,78,81,82,83,87,34,35,36,37,38,39,40,41,42,43,44,45,47,48,49,50,52,53,55,56,57,58,60,61,62,64,65,66,67,68,69,70,73,76,78,79,86,35,36,37,38,39,41,43,45,46,47,48,49,51,53,55,58,59,61,62,64,69,70,71,76,78,79,36,37,38,41,43,44,45,46,47,48,49,51,52,53,55,56,57,59,78,37,39,40,41,42,43,44,45,46,47,48,49,50,51,54,55,58,59,61,62,64,67,74,38,39,40,41,42,43,44,45,46,47,48,49,50,51,52,53,55,56,57,58,59,60,61,62,63,64,65,66,67,68,69,70,71,73,75,77,78,79,80,84,85,39,40,41,42,43,44,45,46,47,48,49,50,51,52,54,55,56,58,59,60,61,62,63,64,65,67,70,71,74,79,80,41,43,44,45,46,47,48,49,51,52,53,55,56,57,58,59,60,61,62,63,64,65,66,69,76,78,41,43,44,45,46,47,48,49,51,52,53,55,56,57,58,59,60,61,62,63,64,65,66,67,69,70,71,73,75,76,77,78,79,85,86,89,42,43,44,45,46,47,48,49,51,52,53,54,55,57,58,59,60,61,62,63,64,66,67,69,70,71,72,74,78,79,80,82,43,44,45,46,47,48,49,51,52,53,55,56,57,58,59,60,61,62,63,64,65,66,67,69,70,71,73,75,76,77,78,79,80,84,85,86,89,44,45,47,48,49,50,51,52,53,55,57,58,60,61,62,64,66,67,68,69,70,76,78,79,86,45,46,47,48,49,50,51,53,54,55,58,59,61,62,64,69,70,71,74,76,78,79,80,82,46,47,48,49,50,51,52,53,54,55,56,57,58,59,60,61,62,63,65,67,68,72,74,81,47,48,49,50,51,52,53,55,56,57,58,59,60,61,62,63,64,65,66,67,68,69,70,73,75,76,78,79,86,48,50,51,52,53,54,56,57,58,59,60,61,62,63,64,65,66,67,68,69,70,71,72,73,76,77,78,79,80,81,82,84,85,86,89,50,51,52,53,54,56,57,58,59,60,61,62,63,64,65,66,67,68,69,70,71,72,73,76,77,78,79,80,81,82,83,84,86,87,90,50,51,52,53,54,56,57,58,59,60,61,62,63,64,65,66,67,68,69,70,71,72,73,76,77,78,79,80,81,82,83,84,85,86,87,89,90,51,52,53,54,55,56,57,58,59,60,61,62,63,64,65,66,67,69,70,71,72,73,74,75,76,77,78,79,80,81,82,83,84,85,86,88,89,91,52,53,54,55,56,57,58,60,61,62,64,65,66,67,68,69,70,71,72,73,75,76,77,78,79,80,81,82,83,84,85,86,89,53,54,55,58,59,61,62,64,67,69,70,71,72,74,76,78,79,80,82,86,54,55,56,57,58,59,60,61,62,63,64,65,66,67,68,70,71,74,77,79,80,84,85,55,56,57,58,59,60,61,62,63,64,65,66,67,68,69,70,71,73,75,76,77,78,79,80,84,85,86,89,56,57,58,59,60,61,62,63,64,65,66,67,68,69,70,71,72,73,74,76,77,78,79,80,81,82,83,84,85,86,87,89,90,57,58,59,60,61,62,63,64,66,67,68,69,70,71,72,74,76,78,79,80,82,86,58,59,60,61,62,63,64,65,67,68,69,70,71,72,73,74,75,76,78,79,80,81,82,83,86,87,88,91,59,60,67,68,70,71,72,74,78,82,60,61,62,64,65,66,67,68,69,70,71,72,73,74,75,76,77,78,79,80,81,82,83,84,85,86,88,89,91,61,62,64,65,66,67,69,70,71,72,73,74,75,76,77,78,79,80,81,82,83,84,85,86,88,89,91,62,64,65,66,67,68,69,70,71,72,73,74,75,76,77,78,79,80,81,82,83,84,85,86,89,63,67,68,70,71,72,74,78,82,64,65,66,67,68,69,70,71,72,73,74,75,76,77,78,79,80,81,82,83,84,85,86,88,89,91,65,67,68,70,71,72,74,77,78,79,80,81,82,83,87,66,67,68,69,70,71,72,74,76,78,79,80,82,84,86,67,68,69,70,71,72,73,74,75,76,77,78,79,80,81,82,83,85,86,87,88,89,91,68,69,70,71,72,73,74,75,76,77,78,79,80,81,82,83,84,85,87,88,90,91,69,70,71,72,73,74,75,76,77,78,79,80,81,82,83,84,85,86,88,89,91,70,71,72,74,77,78,79,80,81,82,83,84,85,87,90,72,74,76,78,81,82,83,86,87,72,73,74,75,76,78,79,81,82,83,86,87,88,91,73,74,75,76,77,78,79,80,82,84,85,86,88,89,91,74,76,77,78,79,80,81,82,83,84,85,86,87,89,90,75,76,77,78,79,80,81,82,83,84,85,86,87,89,90,76,77,78,79,80,81,82,83,84,85,86,87,89,90,77,78,79,80,81,82,83,84,85,87,88,90,91,78,79,80,81,82,83,84,86,87,88,90,91,79,80,81,84,85,86,88,89,81,82,83,85,86,87,88,89,91,81,82,83,85,86,87,88,89,91,82,84,85,86,88,89,91,83,84,85,86,87,88,89,84,85,86,88,89,91,85,86,87,88,89,91,86,87,88,90,91,87,88,90,91,88,89,91,89,90,90,91,91];

USEFUL_RES = [{},
	{1,2,5,8,9},
	{4,5,6,7,10},
	{4,6,7,10},
	{2,3,4,6,7,9,10},
	{1,2,3,5,8,9},
	{1,2,5,8,9},
	{1,2,4,5,6,7,8,9,10},
	{1,2,5,8,9},
	{1,2,3,4,5,6,7,9,10},
	{1,2,4,5,6,7,8,9,10},
	{1,2,3,4,5,6,7,8,9,10},
	{1,2,3,5,8,9},
	{1,2,3,4,5,6,7,9,10},
	{1,2,3,5,8,9},
	{2,4,5,6,7,9,10},
	{1,2,5,8,9},
	{1,2,4,5,6,7,8,9,10},
	{1,2,4,5,6,7,8,9,10},
	{1,2,3,5,8,9},
	{1,2,3,5,8,9},
	{1,2,3,4,5,6,7,9,10},
	{4,5,6,7,10},
	{1,2,4,5,6,7,8,9,10},
	{1,2,3,4,5,6,7,9,10},
	{1,2,4,5,6,7,8,9,10},
	{1,2,3,9},
	{1,2,3,5,8,9},
	{1,2,4,5,6,7,8,9,10},
	{2,3,9},
	{4,6,7,10},
	{4,6,7,10},
	{1,2,3,4,5,6,7,9,10},
	{2,3,4,6,7,9,10},
	{1,2,3,5,8,9},
	{1,2,3,5,8,9},
	{1,2,4,5,6,7,8,9,10},
	{1,2,5,8,9},
	{1,2,5,8,9},
	{1,2,3,4,5,6,7,9,10},
	{1,2,4,5,6,7,8,9,10},
	{1,2,4,5,6,7,8,9,10},
	{1,2,5,8,9},
	{2,3,4,5,6,7,9,10},
	{4,5,6,7,10},
	{2,3,4,5,6,7,9,10},
	{1,2,4,5,6,7,8,9,10},
	{4,5,6,7,10},
	{1,2,3,9},
	{1,2,4,5,6,7,8,9,10},
	{4,5,6,7,10},
	{1,2,3,5,8,9},
	{1,2,3,4,6,7,9,10},
	{1,2,3,4,5,6,7,9,10},
	{1,2,3,5,8,9},
	{4,5,6,7,10},
	{1,2,4,5,6,7,8,9,10},
	{1,2,3,4,5,6,7,8,9,10},
	{1,2,4,5,6,7,8,9,10},
	{1,2,3,9},
	{1,2,3,4,5,6,7,8,9,10},
	{1,2,4,5,6,7,8,9,10},
	{2,4,5,6,7,9,10},
	{4,6,7,10},
	{1,2,3,9},
	{1,2,4,5,6,7,8,9,10},
	{4,5,6,7,10},
	{1,2,3,9},
	{2,3,4,6,7,9,10},
	{1,2,4,5,6,7,8,9,10},
	{1,2,3,5,8,9},
	{1,2,3,9},
	{2,3,9},
	{1,2,3,5,8,9},
	{1,2,3,4,5,6,7,8,9,10},
	{4,6,7,10},
	{4,5,6,7,10},
	{1,2,5,8,9},
	{1,2,4,5,6,7,8,9,10},
	{1,2,3,9},
	{4,6,7,9,10},
	{1,2,3,9},
	{4,6,7,10},
	{1,2,5,8,9},
	{1,2,3,5,8,9},
	{4,6,7,10},
	{2,3,4,5,6,7,9,10},
	{1,2,3,5,8,9},
	{4,6,7,10},
	{1,2,3,4,5,6,7,8,9,10},
	{2,4,5,6,7,9,10},
	{}];

POTENTIAL_ACT = [{2,6,7,8,9,10,11,12,13,14,15,17,18,19,20,21,22,24,25,26,27,28,29,33,35,36,37,38,39,40,41,42,43,47,49,50,52,53,54,55,57,58,59,60,61,62,65,66,68,70,71,72,74,75,78,79,80,82,84,85,88,90},
	{2,5,6,7,8,9,10,11,12,13,14,15,16,17,18,19,20,21,22,24,25,26,27,28,29,30,33,34,35,36,37,38,39,40,41,42,43,44,46,47,49,50,52,53,54,55,57,58,59,60,61,62,63,65,66,68,69,70,71,72,73,74,75,78,79,80,82,84,85,87,88,90,91},
	{5,6,10,12,13,14,15,20,21,22,25,27,28,30,33,34,35,36,40,44,46,49,52,53,54,55,58,60,61,65,68,69,71,72,73,74,75,80,82,85,87,88,90},
	{3,4,5,8,10,11,12,14,16,18,19,22,23,24,25,26,29,31,32,33,34,37,40,41,42,44,45,46,47,48,50,51,53,54,56,57,58,59,61,62,63,64,66,67,69,70,75,76,77,79,81,83,86,87,89,90,91},
	{2,3,6,7,8,9,10,11,12,13,14,15,16,17,18,19,20,21,22,23,24,25,26,28,29,33,35,36,37,38,39,40,41,42,43,44,45,46,47,48,50,51,52,54,55,56,57,58,59,61,62,63,66,67,70,71,74,75,77,78,79,84,85,87,88,90,91},
	{3,4,5,8,10,11,12,14,16,18,19,22,23,24,25,26,29,31,32,33,34,37,40,41,42,44,45,46,47,48,50,51,53,54,56,57,58,59,61,62,63,64,66,67,69,70,75,76,77,79,81,83,86,87,89,90,91},
	{3,4,5,8,10,11,12,14,16,18,19,22,23,24,25,26,29,31,32,33,34,37,40,41,42,44,45,46,47,48,50,51,53,54,56,57,58,59,61,62,63,64,66,67,69,70,75,76,77,79,81,83,86,87,89,90,91},
	{2,6,7,8,9,11,12,13,15,17,18,19,20,21,24,26,28,29,35,36,37,38,39,41,42,43,47,50,52,55,57,58,59,61,62,66,70,71,74,75,78,79,84,85,88,90},
	{2,5,6,7,8,9,10,11,12,13,14,15,16,17,18,19,20,21,22,24,25,26,27,28,29,30,33,34,35,36,37,38,39,40,41,42,43,44,46,47,49,50,52,53,54,55,57,58,59,60,61,62,63,65,66,68,69,70,71,72,73,74,75,78,79,80,81,82,84,85,87,88,90,91},
	{3,4,5,8,10,11,12,14,16,18,19,22,23,24,25,26,29,31,32,33,34,37,40,41,42,44,45,46,47,48,50,51,53,54,56,57,58,59,61,62,63,64,66,67,69,70,75,76,77,79,81,83,86,87,89,90,91}];
